60
1 0 1
2 0 3
3 0 4
4 1 11
5 1 3
5 2 8
5 4 1
7 2 2
7 4 7
8 0 4
8 2 7
8 3 6
8 4 7
8 7 2
9 2 2
9 3 8
9 6 11
10 0 5
10 1 9
10 2 6
10 3 4
10 8 10
11 1 7
11 3 11
11 4 2
11 6 5
11 7 5
11 8 10
12 0 8
12 6 8
12 8 5
12 10 5
13 2 1
13 6 8
13 9 2
13 10 11
13 12 10
14 2 11
14 4 6
14 5 7
14 6 3
14 7 3
14 8 7
14 11 3
14 12 1
15 4 11
15 5 6
15 6 12
15 7 12
15 10 5
15 11 9
15 12 3
16 0 1
16 1 1
16 3 10
16 4 7
16 5 12
16 8 8
16 9 4
16 12 7
16 13 5
16 15 7
17 0 2
17 2 8
17 3 11
17 6 12
17 7 8
17 8 1
17 9 6
17 11 4
17 12 6
17 15 1
17 16 4
18 0 4
18 1 5
18 4 12
18 5 11
18 6 11
18 11 6
18 13 7
18 14 4
18 16 1
19 1 3
19 2 4
19 3 9
19 5 11
19 6 10
19 7 8
19 8 12
19 9 11
19 13 11
19 14 3
19 15 9
19 18 11
20 0 4
20 1 1
20 3 1
20 4 11
20 5 10
20 7 11
20 8 7
20 12 10
20 13 10
20 14 12
20 18 6
20 19 6
21 1 7
21 2 6
21 4 6
21 5 12
21 6 5
21 7 7
21 8 7
21 9 11
21 11 10
21 13 2
21 17 1
21 18 6
22 0 12
22 5 2
22 7 1
22 10 2
22 11 7
22 12 9
22 13 2
22 14 11
22 15 12
22 20 3
23 4 6
23 6 4
23 7 7
23 8 1
23 9 12
23 17 7
23 19 8
23 20 2
23 21 3
24 1 2
24 2 11
24 5 6
24 8 3
24 11 3
24 12 10
24 13 5
24 15 3
24 16 4
24 19 4
24 20 1
24 23 9
25 0 4
25 1 10
25 5 10
25 6 12
25 10 2
25 15 7
25 16 2
25 18 12
25 19 5
25 21 2
25 23 2
25 24 12
26 0 2
26 5 10
26 6 8
26 8 4
26 10 4
26 13 11
26 17 4
26 21 10
26 23 2
26 24 11
26 25 10
27 1 3
27 4 9
27 6 3
27 8 6
27 9 6
27 10 8
27 12 3
27 13 11
27 15 2
27 16 2
27 18 11
27 19 12
27 21 2
27 22 7
28 4 12
28 5 4
28 10 10
28 13 12
28 14 10
28 17 4
28 18 5
28 21 2
28 23 8
28 24 1
28 26 10
28 27 7
29 2 7
29 6 2
29 8 3
29 9 6
29 11 9
29 13 6
29 14 10
29 15 6
29 17 12
29 18 7
29 19 12
29 22 5
29 23 2
29 25 1
29 28 12
30 0 5
30 1 7
30 2 6
30 3 8
30 6 2
30 7 12
30 8 5
30 9 7
30 10 5
30 11 11
30 12 9
30 16 4
30 19 7
30 20 2
30 26 2
30 27 6
30 28 8
31 0 9
31 1 4
31 4 5
31 5 9
31 6 9
31 7 9
31 12 5
31 15 10
31 16 3
31 20 1
31 25 11
31 26 8
31 27 5
31 28 11
31 30 6
32 0 11
32 1 1
32 3 4
32 6 4
32 7 10
32 8 3
32 12 3
32 13 2
32 14 1
32 15 4
32 16 8
32 17 7
32 18 8
32 27 2
32 29 7
32 31 2
33 1 12
33 2 11
33 3 4
33 4 4
33 9 5
33 13 3
33 16 2
33 18 1
33 19 3
33 23 1
33 25 11
33 31 10
33 32 2
34 0 7
34 2 7
34 3 4
34 5 4
34 13 10
34 15 8
34 17 4
34 18 1
34 21 6
34 22 3
34 23 8
34 27 8
34 28 8
34 29 10
34 31 1
34 32 8
35 0 9
35 4 11
35 5 11
35 7 12
35 11 7
35 19 2
35 20 5
35 23 10
35 24 6
35 25 12
35 26 6
35 27 7
35 28 7
35 30 3
35 31 1
35 32 4
36 2 5
36 3 12
36 6 5
36 7 11
36 8 6
36 9 5
36 11 6
36 13 8
36 14 8
36 15 11
36 17 5
36 18 8
36 19 8
36 21 4
36 22 1
36 23 6
36 24 4
36 28 3
36 30 3
36 31 1
36 34 5
36 35 7
37 2 9
37 4 6
37 6 3
37 8 3
37 10 1
37 12 6
37 15 10
37 16 6
37 17 7
37 19 1
37 20 12
37 21 10
37 22 7
37 27 7
37 29 6
37 31 5
37 35 10
37 36 4
38 0 4
38 4 4
38 5 9
38 8 10
38 9 7
38 10 4
38 12 9
38 16 7
38 18 9
38 22 5
38 23 9
38 24 4
38 25 6
38 27 8
38 28 2
38 29 5
38 33 9
38 34 5
38 35 5
39 0 8
39 1 12
39 2 5
39 3 12
39 8 6
39 10 5
39 11 12
39 15 7
39 16 12
39 17 9
39 18 12
39 20 9
39 22 2
39 23 11
39 24 8
39 25 1
39 27 7
39 28 9
39 30 4
39 32 3
39 34 6
39 35 7
39 36 9
39 37 11
39 38 5
40 0 2
40 3 11
40 6 1
40 8 5
40 9 9
40 13 2
40 14 2
40 16 12
40 20 8
40 21 6
40 24 10
40 27 3
40 28 1
40 29 11
40 33 4
40 34 11
40 35 10
40 37 12
40 39 12
41 0 6
41 1 11
41 3 6
41 4 12
41 5 3
41 6 9
41 8 3
41 10 9
41 13 11
41 14 10
41 19 7
41 24 3
41 27 10
41 29 2
41 31 10
41 32 1
41 33 9
41 37 8
41 40 5
42 2 9
42 3 11
42 4 8
42 5 9
42 7 6
42 10 9
42 12 2
42 14 3
42 16 6
42 17 12
42 18 8
42 19 12
42 20 10
42 21 5
42 24 8
42 26 5
42 28 3
42 29 7
42 30 9
42 31 5
42 33 11
42 34 12
42 35 3
42 41 8
43 0 7
43 4 6
43 5 9
43 7 11
43 8 1
43 9 7
43 10 1
43 11 5
43 18 6
43 20 7
43 22 4
43 23 6
43 25 1
43 28 4
43 30 10
43 31 10
43 32 8
43 33 5
43 34 9
43 35 9
43 37 8
43 39 1
43 40 8
43 42 9
44 0 12
44 3 8
44 4 11
44 5 2
44 6 2
44 7 6
44 8 7
44 10 9
44 11 12
44 13 11
44 14 9
44 16 9
44 17 9
44 18 6
44 20 1
44 21 1
44 24 8
44 31 1
44 32 1
44 33 3
44 34 12
44 36 7
44 37 4
44 40 5
44 41 10
44 43 7
45 1 12
45 2 7
45 3 10
45 4 2
45 6 3
45 7 1
45 8 3
45 10 11
45 11 5
45 12 7
45 16 12
45 21 2
45 23 9
45 24 11
45 25 1
45 26 5
45 29 3
45 30 10
45 31 3
45 33 6
45 34 7
45 39 9
45 41 7
45 42 3
46 0 10
46 1 7
46 2 11
46 5 12
46 7 2
46 10 6
46 11 6
46 12 1
46 15 8
46 16 6
46 20 5
46 21 5
46 22 7
46 23 9
46 26 1
46 28 9
46 29 9
46 30 2
46 32 7
46 35 3
46 36 3
46 40 11
46 45 12
47 0 6
47 1 10
47 6 5
47 8 4
47 9 3
47 12 3
47 14 4
47 16 2
47 19 3
47 20 6
47 21 3
47 22 10
47 23 1
47 25 6
47 27 8
47 30 12
47 31 7
47 34 12
47 35 9
47 37 12
47 39 6
47 42 2
47 44 6
47 46 8
48 1 12
48 3 2
48 4 9
48 5 6
48 6 3
48 7 3
48 8 6
48 11 8
48 14 4
48 15 3
48 16 10
48 20 6
48 23 7
48 24 12
48 25 9
48 27 2
48 28 3
48 29 7
48 30 10
48 31 10
48 39 7
48 44 7
48 47 6
49 9 12
49 11 5
49 12 4
49 14 12
49 15 1
49 16 5
49 17 10
49 18 1
49 20 12
49 21 7
49 23 8
49 26 12
49 28 9
49 29 6
49 32 9
49 33 1
49 34 11
49 35 3
49 36 6
49 37 4
49 38 12
49 39 7
49 40 3
49 42 2
49 43 7
49 48 1
50 2 8
50 3 6
50 7 1
50 9 10
50 10 1
50 11 7
50 12 10
50 13 11
50 16 2
50 18 3
50 19 6
50 20 12
50 22 8
50 23 12
50 25 2
50 26 10
50 30 11
50 33 1
50 35 7
50 37 1
50 38 4
50 39 6
50 42 8
50 44 6
50 45 5
50 46 7
50 47 8
51 6 8
51 8 4
51 12 7
51 15 9
51 17 3
51 19 8
51 21 8
51 23 1
51 24 8
51 28 4
51 30 9
51 35 7
51 37 3
51 40 5
51 44 11
51 46 5
51 47 3
52 0 6
52 1 6
52 6 4
52 7 8
52 8 5
52 9 10
52 11 7
52 12 11
52 13 3
52 14 3
52 15 3
52 18 6
52 23 11
52 24 4
52 26 10
52 27 2
52 31 3
52 32 9
52 33 11
52 35 6
52 36 8
52 37 11
52 40 10
52 43 1
52 47 7
52 48 9
52 50 5
52 51 5
53 3 3
53 5 2
53 8 6
53 10 3
53 11 5
53 12 9
53 14 9
53 17 1
53 22 8
53 25 8
53 26 8
53 29 8
53 30 6
53 31 10
53 34 12
53 36 12
53 38 1
53 39 5
53 42 8
53 43 10
53 44 10
53 47 5
53 49 7
53 50 12
53 51 1
53 52 7
54 0 1
54 4 3
54 5 6
54 8 9
54 11 10
54 12 8
54 13 10
54 14 9
54 15 5
54 17 11
54 18 10
54 19 4
54 20 7
54 22 5
54 24 2
54 26 3
54 27 4
54 35 5
54 36 5
54 38 5
54 42 10
54 45 10
54 49 12
54 51 4
54 52 4
54 53 10
55 1 1
55 2 10
55 3 11
55 4 12
55 5 9
55 7 11
55 8 2
55 9 10
55 10 1
55 15 3
55 16 4
55 17 12
55 20 4
55 24 8
55 25 9
55 26 5
55 27 2
55 29 1
55 30 11
55 31 8
55 32 10
55 33 4
55 34 2
55 35 8
55 40 8
55 43 12
55 46 9
55 47 4
55 49 7
55 50 8
55 52 10
55 53 5
55 54 9
56 0 7
56 2 5
56 5 2
56 6 2
56 7 10
56 8 4
56 11 11
56 12 6
56 13 5
56 14 11
56 18 3
56 20 11
56 21 6
56 27 5
56 28 6
56 29 12
56 30 7
56 33 11
56 34 3
56 35 9
56 36 4
56 37 6
56 39 6
56 41 9
56 42 9
56 43 5
56 44 8
56 46 6
56 50 10
56 51 4
56 53 3
56 54 12
57 1 5
57 5 6
57 6 4
57 9 9
57 12 3
57 13 1
57 16 11
57 17 2
57 18 9
57 19 5
57 22 4
57 24 5
57 25 6
57 27 2
57 28 3
57 30 7
57 31 7
57 33 8
57 37 5
57 38 9
57 39 9
57 41 7
57 42 8
57 45 11
57 46 11
57 47 6
57 48 1
57 52 12
57 53 5
57 54 8
57 56 11
58 3 9
58 4 8
58 7 10
58 8 12
58 14 3
58 15 3
58 16 12
58 17 10
58 19 7
58 20 4
58 24 8
58 25 2
58 26 2
58 28 8
58 29 4
58 30 2
58 31 12
58 33 1
58 35 10
58 37 7
58 39 12
58 40 1
58 41 10
58 46 9
58 52 8
58 53 4
58 54 4
58 57 9
59 2 4
59 3 7
59 6 3
59 10 5
59 11 9
59 12 3
59 13 5
59 15 9
59 17 3
59 18 1
59 24 9
59 32 5
59 34 11
59 37 6
59 40 10
59 42 5
59 45 11
59 50 8
59 51 7
59 54 7
59 55 1
59 56 5
